\ENCODING=ISO-8859-1
\Problem name: IloCplex

Minimize
 obj1: 1000 z(0,0,7) + 1100 z(0,0,6) + 1100 z(0,0,5) + 1100 z(0,0,4)
       + 2000 z(0,0,3) + 2000 z(0,0,2) + 2000 z(0,0,1) + 2000 z(0,0,0)
       + 1000 z(0,1,7) + 1100 z(0,1,6) + 1100 z(0,1,5) + 1100 z(0,1,4)
       + 2000 z(0,1,3) + 2000 z(0,1,2) + 2000 z(0,1,1) + 2000 z(0,1,0)
       + 1000 z(0,2,7) + 1100 z(0,2,6) + 1100 z(0,2,5) + 1100 z(0,2,4)
       + 2000 z(0,2,3) + 2000 z(0,2,2) + 2000 z(0,2,1) + 2000 z(0,2,0)
       + 1000 z(0,3,7) + 1100 z(0,3,6) + 1100 z(0,3,5) + 1100 z(0,3,4)
       + 2000 z(0,3,3) + 2000 z(0,3,2) + 2000 z(0,3,1) + 2000 z(0,3,0)
       + 1000 z(0,4,7) + 1100 z(0,4,6) + 1100 z(0,4,5) + 1100 z(0,4,4)
       + 2000 z(0,4,3) + 2000 z(0,4,2) + 2000 z(0,4,1) + 2000 z(0,4,0)
       + 1000 z(0,5,7) + 1100 z(0,5,6) + 1100 z(0,5,5) + 1100 z(0,5,4)
       + 2000 z(0,5,3) + 2000 z(0,5,2) + 2000 z(0,5,1) + 2000 z(0,5,0)
       + 1000 z(0,6,7) + 1100 z(0,6,6) + 1100 z(0,6,5) + 1100 z(0,6,4)
       + 2000 z(0,6,3) + 2000 z(0,6,2) + 2000 z(0,6,1) + 2000 z(0,6,0)
       + 0 z(0,7,7) + 100 z(0,7,6) + 100 z(0,7,5) + 100 z(0,7,4)
       + 1000 z(0,7,3) + 1000 z(0,7,2) + 1000 z(0,7,1) + 1000 z(0,7,0)
       + 1000 z(1,0,7) + 1100 z(1,0,6) + 1100 z(1,0,5) + 1100 z(1,0,4)
       + 2000 z(1,0,3) + 2000 z(1,0,2) + 2000 z(1,0,1) + 2000 z(1,0,0)
       + 1000 z(1,1,7) + 1100 z(1,1,6) + 1100 z(1,1,5) + 1100 z(1,1,4)
       + 2000 z(1,1,3) + 2000 z(1,1,2) + 2000 z(1,1,1) + 2000 z(1,1,0)
       + 1000 z(1,2,7) + 1100 z(1,2,6) + 1100 z(1,2,5) + 1100 z(1,2,4)
       + 2000 z(1,2,3) + 2000 z(1,2,2) + 2000 z(1,2,1) + 2000 z(1,2,0)
       + 1000 z(1,3,7) + 1100 z(1,3,6) + 1100 z(1,3,5) + 1100 z(1,3,4)
       + 2000 z(1,3,3) + 2000 z(1,3,2) + 2000 z(1,3,1) + 2000 z(1,3,0)
       + 1000 z(1,4,7) + 1100 z(1,4,6) + 1100 z(1,4,5) + 1100 z(1,4,4)
       + 2000 z(1,4,3) + 2000 z(1,4,2) + 2000 z(1,4,1) + 2000 z(1,4,0)
       + 1000 z(1,5,7) + 1100 z(1,5,6) + 1100 z(1,5,5) + 1100 z(1,5,4)
       + 2000 z(1,5,3) + 2000 z(1,5,2) + 2000 z(1,5,1) + 2000 z(1,5,0)
       + 1000 z(1,6,7) + 1100 z(1,6,6) + 1100 z(1,6,5) + 1100 z(1,6,4)
       + 2000 z(1,6,3) + 2000 z(1,6,2) + 2000 z(1,6,1) + 2000 z(1,6,0)
       + 0 z(1,7,7) + 100 z(1,7,6) + 100 z(1,7,5) + 100 z(1,7,4)
       + 1000 z(1,7,3) + 1000 z(1,7,2) + 1000 z(1,7,1) + 1000 z(1,7,0)
       + 1000 z(2,0,7) + 1100 z(2,0,6) + 1100 z(2,0,5) + 1100 z(2,0,4)
       + 2000 z(2,0,3) + 2000 z(2,0,2) + 2000 z(2,0,1) + 2000 z(2,0,0)
       + 1000 z(2,1,7) + 1100 z(2,1,6) + 1100 z(2,1,5) + 1100 z(2,1,4)
       + 2000 z(2,1,3) + 2000 z(2,1,2) + 2000 z(2,1,1) + 2000 z(2,1,0)
       + 1000 z(2,2,7) + 1100 z(2,2,6) + 1100 z(2,2,5) + 1100 z(2,2,4)
       + 2000 z(2,2,3) + 2000 z(2,2,2) + 2000 z(2,2,1) + 2000 z(2,2,0)
       + 1000 z(2,3,7) + 1100 z(2,3,6) + 1100 z(2,3,5) + 1100 z(2,3,4)
       + 2000 z(2,3,3) + 2000 z(2,3,2) + 2000 z(2,3,1) + 2000 z(2,3,0)
       + 1000 z(2,4,7) + 1100 z(2,4,6) + 1100 z(2,4,5) + 1100 z(2,4,4)
       + 2000 z(2,4,3) + 2000 z(2,4,2) + 2000 z(2,4,1) + 2000 z(2,4,0)
       + 1000 z(2,5,7) + 1100 z(2,5,6) + 1100 z(2,5,5) + 1100 z(2,5,4)
       + 2000 z(2,5,3) + 2000 z(2,5,2) + 2000 z(2,5,1) + 2000 z(2,5,0)
       + 1000 z(2,6,7) + 1100 z(2,6,6) + 1100 z(2,6,5) + 1100 z(2,6,4)
       + 2000 z(2,6,3) + 2000 z(2,6,2) + 2000 z(2,6,1) + 2000 z(2,6,0)
       + 0 z(2,7,7) + 100 z(2,7,6) + 100 z(2,7,5) + 100 z(2,7,4)
       + 1000 z(2,7,3) + 1000 z(2,7,2) + 1000 z(2,7,1) + 1000 z(2,7,0)
       + 1000 z(3,0,7) + 1100 z(3,0,6) + 1100 z(3,0,5) + 1100 z(3,0,4)
       + 2000 z(3,0,3) + 2000 z(3,0,2) + 2000 z(3,0,1) + 2000 z(3,0,0)
       + 1000 z(3,1,7) + 1100 z(3,1,6) + 1100 z(3,1,5) + 1100 z(3,1,4)
       + 2000 z(3,1,3) + 2000 z(3,1,2) + 2000 z(3,1,1) + 2000 z(3,1,0)
       + 1000 z(3,2,7) + 1100 z(3,2,6) + 1100 z(3,2,5) + 1100 z(3,2,4)
       + 2000 z(3,2,3) + 2000 z(3,2,2) + 2000 z(3,2,1) + 2000 z(3,2,0)
       + 1000 z(3,3,7) + 1100 z(3,3,6) + 1100 z(3,3,5) + 1100 z(3,3,4)
       + 2000 z(3,3,3) + 2000 z(3,3,2) + 2000 z(3,3,1) + 2000 z(3,3,0)
       + 1000 z(3,4,7) + 1100 z(3,4,6) + 1100 z(3,4,5) + 1100 z(3,4,4)
       + 2000 z(3,4,3) + 2000 z(3,4,2) + 2000 z(3,4,1) + 2000 z(3,4,0)
       + 1000 z(3,5,7) + 1100 z(3,5,6) + 1100 z(3,5,5) + 1100 z(3,5,4)
       + 2000 z(3,5,3) + 2000 z(3,5,2) + 2000 z(3,5,1) + 2000 z(3,5,0)
       + 1000 z(3,6,7) + 1100 z(3,6,6) + 1100 z(3,6,5) + 1100 z(3,6,4)
       + 2000 z(3,6,3) + 2000 z(3,6,2) + 2000 z(3,6,1) + 2000 z(3,6,0)
       + 0 z(3,7,7) + 100 z(3,7,6) + 100 z(3,7,5) + 100 z(3,7,4)
       + 1000 z(3,7,3) + 1000 z(3,7,2) + 1000 z(3,7,1) + 1000 z(3,7,0)
Subject To
 Placement(0)#0:          z(0,0,6) + z(0,0,5) + z(0,0,4) + 32714 z(0,0,3)
                          - 1451120768 z(0,0,2) + 98 z(0,0,1) + z(0,0,0)
                          + 98 z(0,1,6) + 98 z(0,1,5) + 98 z(0,1,4)
                          + 98 z(0,1,1) - 1451120768 z(0,2,6)
                          - 1451120768 z(0,2,5) - 1451120768 z(0,2,4)
                          - 1451120768 z(0,2,2) + 32714 z(0,3,6)
                          + 32714 z(0,3,5) + 32714 z(0,3,4) + 32714 z(0,3,3)
                          + z(0,4,7) + z(0,4,6) + z(0,4,5) + z(0,4,4)
                          + z(0,5,7) + z(0,5,6) + z(0,5,5) + z(0,5,4)
                          + z(0,6,7) + z(0,6,6) + z(0,6,5) + z(0,6,4)  = 1
 Placement(1)#1:          z(1,1,6) + z(1,1,5) + z(1,1,4) + z(1,1,1) + z(1,4,7)
                          + z(1,4,6) + z(1,4,5) + z(1,4,4) + z(1,5,7)
                          + z(1,5,6) + z(1,5,5) + z(1,5,4) + z(1,6,7)
                          + z(1,6,6) + z(1,6,5) + z(1,6,4)  = 1
 Placement(2)#2:          z(2,2,6) + z(2,2,5) + z(2,2,4) + z(2,2,2) + z(2,4,7)
                          + z(2,4,6) + z(2,4,5) + z(2,4,4) + z(2,5,7)
                          + z(2,5,6) + z(2,5,5) + z(2,5,4) + z(2,6,7)
                          + z(2,6,6) + z(2,6,5) + z(2,6,4)  = 1
 Placement(3)#3:          z(3,3,6) + z(3,3,5) + z(3,3,4) + z(3,3,3) + z(3,4,7)
                          + z(3,4,6) + z(3,4,5) + z(3,4,4) + z(3,5,7)
                          + z(3,5,6) + z(3,5,5) + z(3,5,4) + z(3,6,7)
                          + z(3,6,6) + z(3,6,5) + z(3,6,4)  = 1
 Capacity_of_link(23)#4:  500000000 z(0,7,6) + 3100000000 z(1,7,6)
                          + 5500000000 z(2,7,6) + 18000000000 z(3,7,6)
                          - RgCapacity_of_link(23)#4  = 0
 Capacity_of_link(21)#5:  500000000 z(0,7,5) + 3100000000 z(1,7,5)
                          + 5500000000 z(2,7,5) + 18000000000 z(3,7,5)
                          - RgCapacity_of_link(21)#5  = 0
 Capacity_of_link(19)#6:  500000000 z(0,7,4) + 3100000000 z(1,7,4)
                          + 5500000000 z(2,7,4) + 18000000000 z(3,7,4)
                          - RgCapacity_of_link(19)#6  = 0
 Capacity_of_link(22)#7:  500000000 z(0,6,7) + 3100000000 z(1,6,7)
                          + 5500000000 z(2,6,7) + 18000000000 z(3,6,7)
                          - RgCapacity_of_link(22)#7  = 0
 Capacity_of_link(17)#8:  500000000 z(0,6,5) + 3100000000 z(1,6,5)
                          + 5500000000 z(2,6,5) + 18000000000 z(3,6,5)
                          - RgCapacity_of_link(17)#8  = 0
 Capacity_of_link(15)#9:  500000000 z(0,6,4) + 3100000000 z(1,6,4)
                          + 5500000000 z(2,6,4) + 18000000000 z(3,6,4)
                          - RgCapacity_of_link(15)#9  = 0
 Capacity_of_link(20)#10: 500000000 z(0,5,7) + 3100000000 z(1,5,7)
                          + 5500000000 z(2,5,7) + 18000000000 z(3,5,7)
                          - RgCapacity_of_link(20)#10  = 0
 Capacity_of_link(16)#11: 500000000 z(0,5,6) + 3100000000 z(1,5,6)
                          + 5500000000 z(2,5,6) + 18000000000 z(3,5,6)
                          - RgCapacity_of_link(16)#11  = 0
 Capacity_of_link(13)#12: 500000000 z(0,5,4) + 3100000000 z(1,5,4)
                          + 5500000000 z(2,5,4) + 18000000000 z(3,5,4)
                          - RgCapacity_of_link(13)#12  = 0
 Capacity_of_link(18)#13: 500000000 z(0,4,7) + 3100000000 z(1,4,7)
                          + 5500000000 z(2,4,7) + 18000000000 z(3,4,7)
                          - RgCapacity_of_link(18)#13  = 0
 Capacity_of_link(14)#14: 500000000 z(0,4,6) + 3100000000 z(1,4,6)
                          + 5500000000 z(2,4,6) + 18000000000 z(3,4,6)
                          - RgCapacity_of_link(14)#14  = 0
 Capacity_of_link(12)#15: 500000000 z(0,4,5) + 3100000000 z(1,4,5)
                          + 5500000000 z(2,4,5) + 18000000000 z(3,4,5)
                          - RgCapacity_of_link(12)#15  = 0
 Capacity_of_link(11)#16: 500000000 z(0,3,6) + 3100000000 z(1,3,6)
                          + 5500000000 z(2,3,6) + 18000000000 z(3,3,6)
                          - RgCapacity_of_link(11)#16  = 0
 Capacity_of_link(10)#17: 500000000 z(0,3,5) + 3100000000 z(1,3,5)
                          + 5500000000 z(2,3,5) + 18000000000 z(3,3,5)
                          - RgCapacity_of_link(10)#17  = 0
 Capacity_of_link(9)#18:  500000000 z(0,3,4) + 3100000000 z(1,3,4)
                          + 5500000000 z(2,3,4) + 18000000000 z(3,3,4)
                          - RgCapacity_of_link(9)#18  = 0
 Capacity_of_link(8)#19:  500000000 z(0,2,6) + 3100000000 z(1,2,6)
                          + 5500000000 z(2,2,6) + 18000000000 z(3,2,6)
                          - RgCapacity_of_link(8)#19  = 0
 Capacity_of_link(7)#20:  500000000 z(0,2,5) + 3100000000 z(1,2,5)
                          + 5500000000 z(2,2,5) + 18000000000 z(3,2,5)
                          - RgCapacity_of_link(7)#20  = 0
 Capacity_of_link(6)#21:  500000000 z(0,2,4) + 3100000000 z(1,2,4)
                          + 5500000000 z(2,2,4) + 18000000000 z(3,2,4)
                          - RgCapacity_of_link(6)#21  = 0
 Capacity_of_link(5)#22:  500000000 z(0,1,6) + 3100000000 z(1,1,6)
                          + 5500000000 z(2,1,6) + 18000000000 z(3,1,6)
                          - RgCapacity_of_link(5)#22  = 0
 Capacity_of_link(4)#23:  500000000 z(0,1,5) + 3100000000 z(1,1,5)
                          + 5500000000 z(2,1,5) + 18000000000 z(3,1,5)
                          - RgCapacity_of_link(4)#23  = 0
 Capacity_of_link(3)#24:  500000000 z(0,1,4) + 3100000000 z(1,1,4)
                          + 5500000000 z(2,1,4) + 18000000000 z(3,1,4)
                          - RgCapacity_of_link(3)#24  = 0
 Capacity_of_link(2)#25:  500000000 z(0,0,6) + 3100000000 z(1,0,6)
                          + 5500000000 z(2,0,6) + 18000000000 z(3,0,6)
                          - RgCapacity_of_link(2)#25  = 0
 Capacity_of_link(1)#26:  500000000 z(0,0,5) + 3100000000 z(1,0,5)
                          + 5500000000 z(2,0,5) + 18000000000 z(3,0,5)
                          - RgCapacity_of_link(1)#26  = 0
 Capacity_of_link(0)#27:  500000000 z(0,0,4) + 3100000000 z(1,0,4)
                          + 5500000000 z(2,0,4) + 18000000000 z(3,0,4)
                          - RgCapacity_of_link(0)#27  = 0
Bounds
 0 <= z(0,0,7) <= 1
 0 <= z(0,0,6) <= 1
 0 <= z(0,0,5) <= 1
 0 <= z(0,0,4) <= 1
 0 <= z(0,0,3) <= 1
 0 <= z(0,0,2) <= 1
 0 <= z(0,0,1) <= 1
 0 <= z(0,0,0) <= 1
 0 <= z(0,1,7) <= 1
 0 <= z(0,1,6) <= 1
 0 <= z(0,1,5) <= 1
 0 <= z(0,1,4) <= 1
 0 <= z(0,1,3) <= 1
 0 <= z(0,1,2) <= 1
 0 <= z(0,1,1) <= 1
 0 <= z(0,1,0) <= 1
 0 <= z(0,2,7) <= 1
 0 <= z(0,2,6) <= 1
 0 <= z(0,2,5) <= 1
 0 <= z(0,2,4) <= 1
 0 <= z(0,2,3) <= 1
 0 <= z(0,2,2) <= 1
 0 <= z(0,2,1) <= 1
 0 <= z(0,2,0) <= 1
 0 <= z(0,3,7) <= 1
 0 <= z(0,3,6) <= 1
 0 <= z(0,3,5) <= 1
 0 <= z(0,3,4) <= 1
 0 <= z(0,3,3) <= 1
 0 <= z(0,3,2) <= 1
 0 <= z(0,3,1) <= 1
 0 <= z(0,3,0) <= 1
 0 <= z(0,4,7) <= 1
 0 <= z(0,4,6) <= 1
 0 <= z(0,4,5) <= 1
 0 <= z(0,4,4) <= 1
 0 <= z(0,4,3) <= 1
 0 <= z(0,4,2) <= 1
 0 <= z(0,4,1) <= 1
 0 <= z(0,4,0) <= 1
 0 <= z(0,5,7) <= 1
 0 <= z(0,5,6) <= 1
 0 <= z(0,5,5) <= 1
 0 <= z(0,5,4) <= 1
 0 <= z(0,5,3) <= 1
 0 <= z(0,5,2) <= 1
 0 <= z(0,5,1) <= 1
 0 <= z(0,5,0) <= 1
 0 <= z(0,6,7) <= 1
 0 <= z(0,6,6) <= 1
 0 <= z(0,6,5) <= 1
 0 <= z(0,6,4) <= 1
 0 <= z(0,6,3) <= 1
 0 <= z(0,6,2) <= 1
 0 <= z(0,6,1) <= 1
 0 <= z(0,6,0) <= 1
 0 <= z(0,7,7) <= 1
 0 <= z(0,7,6) <= 1
 0 <= z(0,7,5) <= 1
 0 <= z(0,7,4) <= 1
 0 <= z(0,7,3) <= 1
 0 <= z(0,7,2) <= 1
 0 <= z(0,7,1) <= 1
 0 <= z(0,7,0) <= 1
 0 <= z(1,0,7) <= 1
 0 <= z(1,0,6) <= 1
 0 <= z(1,0,5) <= 1
 0 <= z(1,0,4) <= 1
 0 <= z(1,0,3) <= 1
 0 <= z(1,0,2) <= 1
 0 <= z(1,0,1) <= 1
 0 <= z(1,0,0) <= 1
 0 <= z(1,1,7) <= 1
 0 <= z(1,1,6) <= 1
 0 <= z(1,1,5) <= 1
 0 <= z(1,1,4) <= 1
 0 <= z(1,1,3) <= 1
 0 <= z(1,1,2) <= 1
 0 <= z(1,1,1) <= 1
 0 <= z(1,1,0) <= 1
 0 <= z(1,2,7) <= 1
 0 <= z(1,2,6) <= 1
 0 <= z(1,2,5) <= 1
 0 <= z(1,2,4) <= 1
 0 <= z(1,2,3) <= 1
 0 <= z(1,2,2) <= 1
 0 <= z(1,2,1) <= 1
 0 <= z(1,2,0) <= 1
 0 <= z(1,3,7) <= 1
 0 <= z(1,3,6) <= 1
 0 <= z(1,3,5) <= 1
 0 <= z(1,3,4) <= 1
 0 <= z(1,3,3) <= 1
 0 <= z(1,3,2) <= 1
 0 <= z(1,3,1) <= 1
 0 <= z(1,3,0) <= 1
 0 <= z(1,4,7) <= 1
 0 <= z(1,4,6) <= 1
 0 <= z(1,4,5) <= 1
 0 <= z(1,4,4) <= 1
 0 <= z(1,4,3) <= 1
 0 <= z(1,4,2) <= 1
 0 <= z(1,4,1) <= 1
 0 <= z(1,4,0) <= 1
 0 <= z(1,5,7) <= 1
 0 <= z(1,5,6) <= 1
 0 <= z(1,5,5) <= 1
 0 <= z(1,5,4) <= 1
 0 <= z(1,5,3) <= 1
 0 <= z(1,5,2) <= 1
 0 <= z(1,5,1) <= 1
 0 <= z(1,5,0) <= 1
 0 <= z(1,6,7) <= 1
 0 <= z(1,6,6) <= 1
 0 <= z(1,6,5) <= 1
 0 <= z(1,6,4) <= 1
 0 <= z(1,6,3) <= 1
 0 <= z(1,6,2) <= 1
 0 <= z(1,6,1) <= 1
 0 <= z(1,6,0) <= 1
 0 <= z(1,7,7) <= 1
 0 <= z(1,7,6) <= 1
 0 <= z(1,7,5) <= 1
 0 <= z(1,7,4) <= 1
 0 <= z(1,7,3) <= 1
 0 <= z(1,7,2) <= 1
 0 <= z(1,7,1) <= 1
 0 <= z(1,7,0) <= 1
 0 <= z(2,0,7) <= 1
 0 <= z(2,0,6) <= 1
 0 <= z(2,0,5) <= 1
 0 <= z(2,0,4) <= 1
 0 <= z(2,0,3) <= 1
 0 <= z(2,0,2) <= 1
 0 <= z(2,0,1) <= 1
 0 <= z(2,0,0) <= 1
 0 <= z(2,1,7) <= 1
 0 <= z(2,1,6) <= 1
 0 <= z(2,1,5) <= 1
 0 <= z(2,1,4) <= 1
 0 <= z(2,1,3) <= 1
 0 <= z(2,1,2) <= 1
 0 <= z(2,1,1) <= 1
 0 <= z(2,1,0) <= 1
 0 <= z(2,2,7) <= 1
 0 <= z(2,2,6) <= 1
 0 <= z(2,2,5) <= 1
 0 <= z(2,2,4) <= 1
 0 <= z(2,2,3) <= 1
 0 <= z(2,2,2) <= 1
 0 <= z(2,2,1) <= 1
 0 <= z(2,2,0) <= 1
 0 <= z(2,3,7) <= 1
 0 <= z(2,3,6) <= 1
 0 <= z(2,3,5) <= 1
 0 <= z(2,3,4) <= 1
 0 <= z(2,3,3) <= 1
 0 <= z(2,3,2) <= 1
 0 <= z(2,3,1) <= 1
 0 <= z(2,3,0) <= 1
 0 <= z(2,4,7) <= 1
 0 <= z(2,4,6) <= 1
 0 <= z(2,4,5) <= 1
 0 <= z(2,4,4) <= 1
 0 <= z(2,4,3) <= 1
 0 <= z(2,4,2) <= 1
 0 <= z(2,4,1) <= 1
 0 <= z(2,4,0) <= 1
 0 <= z(2,5,7) <= 1
 0 <= z(2,5,6) <= 1
 0 <= z(2,5,5) <= 1
 0 <= z(2,5,4) <= 1
 0 <= z(2,5,3) <= 1
 0 <= z(2,5,2) <= 1
 0 <= z(2,5,1) <= 1
 0 <= z(2,5,0) <= 1
 0 <= z(2,6,7) <= 1
 0 <= z(2,6,6) <= 1
 0 <= z(2,6,5) <= 1
 0 <= z(2,6,4) <= 1
 0 <= z(2,6,3) <= 1
 0 <= z(2,6,2) <= 1
 0 <= z(2,6,1) <= 1
 0 <= z(2,6,0) <= 1
 0 <= z(2,7,7) <= 1
 0 <= z(2,7,6) <= 1
 0 <= z(2,7,5) <= 1
 0 <= z(2,7,4) <= 1
 0 <= z(2,7,3) <= 1
 0 <= z(2,7,2) <= 1
 0 <= z(2,7,1) <= 1
 0 <= z(2,7,0) <= 1
 0 <= z(3,0,7) <= 1
 0 <= z(3,0,6) <= 1
 0 <= z(3,0,5) <= 1
 0 <= z(3,0,4) <= 1
 0 <= z(3,0,3) <= 1
 0 <= z(3,0,2) <= 1
 0 <= z(3,0,1) <= 1
 0 <= z(3,0,0) <= 1
 0 <= z(3,1,7) <= 1
 0 <= z(3,1,6) <= 1
 0 <= z(3,1,5) <= 1
 0 <= z(3,1,4) <= 1
 0 <= z(3,1,3) <= 1
 0 <= z(3,1,2) <= 1
 0 <= z(3,1,1) <= 1
 0 <= z(3,1,0) <= 1
 0 <= z(3,2,7) <= 1
 0 <= z(3,2,6) <= 1
 0 <= z(3,2,5) <= 1
 0 <= z(3,2,4) <= 1
 0 <= z(3,2,3) <= 1
 0 <= z(3,2,2) <= 1
 0 <= z(3,2,1) <= 1
 0 <= z(3,2,0) <= 1
 0 <= z(3,3,7) <= 1
 0 <= z(3,3,6) <= 1
 0 <= z(3,3,5) <= 1
 0 <= z(3,3,4) <= 1
 0 <= z(3,3,3) <= 1
 0 <= z(3,3,2) <= 1
 0 <= z(3,3,1) <= 1
 0 <= z(3,3,0) <= 1
 0 <= z(3,4,7) <= 1
 0 <= z(3,4,6) <= 1
 0 <= z(3,4,5) <= 1
 0 <= z(3,4,4) <= 1
 0 <= z(3,4,3) <= 1
 0 <= z(3,4,2) <= 1
 0 <= z(3,4,1) <= 1
 0 <= z(3,4,0) <= 1
 0 <= z(3,5,7) <= 1
 0 <= z(3,5,6) <= 1
 0 <= z(3,5,5) <= 1
 0 <= z(3,5,4) <= 1
 0 <= z(3,5,3) <= 1
 0 <= z(3,5,2) <= 1
 0 <= z(3,5,1) <= 1
 0 <= z(3,5,0) <= 1
 0 <= z(3,6,7) <= 1
 0 <= z(3,6,6) <= 1
 0 <= z(3,6,5) <= 1
 0 <= z(3,6,4) <= 1
 0 <= z(3,6,3) <= 1
 0 <= z(3,6,2) <= 1
 0 <= z(3,6,1) <= 1
 0 <= z(3,6,0) <= 1
 0 <= z(3,7,7) <= 1
 0 <= z(3,7,6) <= 1
 0 <= z(3,7,5) <= 1
 0 <= z(3,7,4) <= 1
 0 <= z(3,7,3) <= 1
 0 <= z(3,7,2) <= 1
 0 <= z(3,7,1) <= 1
 0 <= z(3,7,0) <= 1
 0 <= RgCapacity_of_link(23)#4 <= 10000000000
 0 <= RgCapacity_of_link(21)#5 <= 10000000000
 0 <= RgCapacity_of_link(19)#6 <= 10000000000
 0 <= RgCapacity_of_link(22)#7 <= 1000000000000
 0 <= RgCapacity_of_link(17)#8 <= 10000000000
 0 <= RgCapacity_of_link(15)#9 <= 10000000000
 0 <= RgCapacity_of_link(20)#10 <= 1000000000000
 0 <= RgCapacity_of_link(16)#11 <= 10000000000
 0 <= RgCapacity_of_link(13)#12 <= 10000000000
 0 <= RgCapacity_of_link(18)#13 <= 1000000000000
 0 <= RgCapacity_of_link(14)#14 <= 10000000000
 0 <= RgCapacity_of_link(12)#15 <= 10000000000
 0 <= RgCapacity_of_link(11)#16 <= 10000000000
 0 <= RgCapacity_of_link(10)#17 <= 10000000000
 0 <= RgCapacity_of_link(9)#18 <= 10000000000
 0 <= RgCapacity_of_link(8)#19 <= 10000000000
 0 <= RgCapacity_of_link(7)#20 <= 10000000000
 0 <= RgCapacity_of_link(6)#21 <= 10000000000
 0 <= RgCapacity_of_link(5)#22 <= 10000000000
 0 <= RgCapacity_of_link(4)#23 <= 10000000000
 0 <= RgCapacity_of_link(3)#24 <= 10000000000
 0 <= RgCapacity_of_link(2)#25 <= 10000000000
 0 <= RgCapacity_of_link(1)#26 <= 10000000000
 0 <= RgCapacity_of_link(0)#27 <= 10000000000
Binaries
 z(0,0,7)  z(0,0,6)  z(0,0,5)  z(0,0,4)  z(0,0,3)  z(0,0,2)  z(0,0,1) 
 z(0,0,0)  z(0,1,7)  z(0,1,6)  z(0,1,5)  z(0,1,4)  z(0,1,3)  z(0,1,2) 
 z(0,1,1)  z(0,1,0)  z(0,2,7)  z(0,2,6)  z(0,2,5)  z(0,2,4)  z(0,2,3) 
 z(0,2,2)  z(0,2,1)  z(0,2,0)  z(0,3,7)  z(0,3,6)  z(0,3,5)  z(0,3,4) 
 z(0,3,3)  z(0,3,2)  z(0,3,1)  z(0,3,0)  z(0,4,7)  z(0,4,6)  z(0,4,5) 
 z(0,4,4)  z(0,4,3)  z(0,4,2)  z(0,4,1)  z(0,4,0)  z(0,5,7)  z(0,5,6) 
 z(0,5,5)  z(0,5,4)  z(0,5,3)  z(0,5,2)  z(0,5,1)  z(0,5,0)  z(0,6,7) 
 z(0,6,6)  z(0,6,5)  z(0,6,4)  z(0,6,3)  z(0,6,2)  z(0,6,1)  z(0,6,0) 
 z(0,7,7)  z(0,7,6)  z(0,7,5)  z(0,7,4)  z(0,7,3)  z(0,7,2)  z(0,7,1) 
 z(0,7,0)  z(1,0,7)  z(1,0,6)  z(1,0,5)  z(1,0,4)  z(1,0,3)  z(1,0,2) 
 z(1,0,1)  z(1,0,0)  z(1,1,7)  z(1,1,6)  z(1,1,5)  z(1,1,4)  z(1,1,3) 
 z(1,1,2)  z(1,1,1)  z(1,1,0)  z(1,2,7)  z(1,2,6)  z(1,2,5)  z(1,2,4) 
 z(1,2,3)  z(1,2,2)  z(1,2,1)  z(1,2,0)  z(1,3,7)  z(1,3,6)  z(1,3,5) 
 z(1,3,4)  z(1,3,3)  z(1,3,2)  z(1,3,1)  z(1,3,0)  z(1,4,7)  z(1,4,6) 
 z(1,4,5)  z(1,4,4)  z(1,4,3)  z(1,4,2)  z(1,4,1)  z(1,4,0)  z(1,5,7) 
 z(1,5,6)  z(1,5,5)  z(1,5,4)  z(1,5,3)  z(1,5,2)  z(1,5,1)  z(1,5,0) 
 z(1,6,7)  z(1,6,6)  z(1,6,5)  z(1,6,4)  z(1,6,3)  z(1,6,2)  z(1,6,1) 
 z(1,6,0)  z(1,7,7)  z(1,7,6)  z(1,7,5)  z(1,7,4)  z(1,7,3)  z(1,7,2) 
 z(1,7,1)  z(1,7,0)  z(2,0,7)  z(2,0,6)  z(2,0,5)  z(2,0,4)  z(2,0,3) 
 z(2,0,2)  z(2,0,1)  z(2,0,0)  z(2,1,7)  z(2,1,6)  z(2,1,5)  z(2,1,4) 
 z(2,1,3)  z(2,1,2)  z(2,1,1)  z(2,1,0)  z(2,2,7)  z(2,2,6)  z(2,2,5) 
 z(2,2,4)  z(2,2,3)  z(2,2,2)  z(2,2,1)  z(2,2,0)  z(2,3,7)  z(2,3,6) 
 z(2,3,5)  z(2,3,4)  z(2,3,3)  z(2,3,2)  z(2,3,1)  z(2,3,0)  z(2,4,7) 
 z(2,4,6)  z(2,4,5)  z(2,4,4)  z(2,4,3)  z(2,4,2)  z(2,4,1)  z(2,4,0) 
 z(2,5,7)  z(2,5,6)  z(2,5,5)  z(2,5,4)  z(2,5,3)  z(2,5,2)  z(2,5,1) 
 z(2,5,0)  z(2,6,7)  z(2,6,6)  z(2,6,5)  z(2,6,4)  z(2,6,3)  z(2,6,2) 
 z(2,6,1)  z(2,6,0)  z(2,7,7)  z(2,7,6)  z(2,7,5)  z(2,7,4)  z(2,7,3) 
 z(2,7,2)  z(2,7,1)  z(2,7,0)  z(3,0,7)  z(3,0,6)  z(3,0,5)  z(3,0,4) 
 z(3,0,3)  z(3,0,2)  z(3,0,1)  z(3,0,0)  z(3,1,7)  z(3,1,6)  z(3,1,5) 
 z(3,1,4)  z(3,1,3)  z(3,1,2)  z(3,1,1)  z(3,1,0)  z(3,2,7)  z(3,2,6) 
 z(3,2,5)  z(3,2,4)  z(3,2,3)  z(3,2,2)  z(3,2,1)  z(3,2,0)  z(3,3,7) 
 z(3,3,6)  z(3,3,5)  z(3,3,4)  z(3,3,3)  z(3,3,2)  z(3,3,1)  z(3,3,0) 
 z(3,4,7)  z(3,4,6)  z(3,4,5)  z(3,4,4)  z(3,4,3)  z(3,4,2)  z(3,4,1) 
 z(3,4,0)  z(3,5,7)  z(3,5,6)  z(3,5,5)  z(3,5,4)  z(3,5,3)  z(3,5,2) 
 z(3,5,1)  z(3,5,0)  z(3,6,7)  z(3,6,6)  z(3,6,5)  z(3,6,4)  z(3,6,3) 
 z(3,6,2)  z(3,6,1)  z(3,6,0)  z(3,7,7)  z(3,7,6)  z(3,7,5)  z(3,7,4) 
 z(3,7,3)  z(3,7,2)  z(3,7,1)  z(3,7,0) 
End
